<instance format="XCSP3" type="CSP">
<variables>
<array id="u0" size="[6]"> 0..8 </array>
<array id="id0" size="[6]"> 0..35 </array>
<array id="u1" size="[6]"> 0..8 </array>
<array id="id1" size="[6]"> 0..35 </array>
<array id="u2" size="[6]"> 0..8 </array>
<array id="id2" size="[6]"> 0..35 </array>
<array id="u3" size="[6]"> 0..8 </array>
<array id="id3" size="[6]"> 0..35 </array>
<array id="u4" size="[6]"> 0..8 </array>
<array id="id4" size="[6]"> 0..35 </array>
<array id="u5" size="[6]"> 0..8 </array>
<array id="id5" size="[6]"> 0..35 </array>
<array id="d5" size="[6]"> 0..8 </array>
<array id="l0" size="[6]"> 0..8 </array>
<array id="l1" size="[6]"> 0..8 </array>
<array id="l2" size="[6]"> 0..8 </array>
<array id="l3" size="[6]"> 0..8 </array>
<array id="l4" size="[6]"> 0..8 </array>
<array id="l5" size="[6]"> 0..8 </array>
<array id="r5" size="[6]"> 0..8 </array>
</variables>
<constraints>
<allDifferent> id0[] id1[] id2[] id3[] id4[] id5[] </allDifferent>
<group>
<extension>
<list> %0 %1 %2 %3 %4 </list>
<supports> (0,0,0,1,1)(0,0,1,1,0)(0,1,0,0,1)(0,1,1,0,0)(1,0,0,1,3)(1,0,1,3,0)(1,1,3,0,0)(1,3,0,0,1)(2,0,0,2,2)(2,0,2,2,0)(2,2,0,0,2)(2,2,2,0,0)(3,0,0,2,3)(3,0,2,3,0)(3,2,3,0,0)(3,3,0,0,2)(4,0,1,6,1)(4,1,0,1,6)(4,1,6,1,0)(4,6,1,0,1)(5,0,1,6,2)(5,1,6,2,0)(5,2,0,1,6)(5,6,2,0,1)(6,0,1,8,1)(6,1,0,1,8)(6,1,8,1,0)(6,8,1,0,1)(7,0,1,8,2)(7,1,8,2,0)(7,2,0,1,8)(7,8,2,0,1)(8,0,1,8,3)(8,1,8,3,0)(8,3,0,1,8)(8,8,3,0,1)(9,0,2,4,1)(9,1,0,2,4)(9,2,4,1,0)(9,4,1,0,2)(10,0,2,5,1)(10,1,0,2,5)(10,2,5,1,0)(10,5,1,0,2)(11,0,2,6,2)(11,2,0,2,6)(11,2,6,2,0)(11,6,2,0,2)(12,0,2,6,3)(12,2,6,3,0)(12,3,0,2,6)(12,6,3,0,2)(13,0,2,7,3)(13,2,7,3,0)(13,3,0,2,7)(13,7,3,0,2)(14,0,3,4,2)(14,2,0,3,4)(14,3,4,2,0)(14,4,2,0,3)(15,0,3,4,3)(15,3,0,3,4)(15,3,4,3,0)(15,4,3,0,3)(16,0,3,5,1)(16,1,0,3,5)(16,3,5,1,0)(16,5,1,0,3)(17,0,3,6,2)(17,2,0,3,6)(17,3,6,2,0)(17,6,2,0,3)(18,0,3,7,1)(18,1,0,3,7)(18,3,7,1,0)(18,7,1,0,3)(19,0,3,8,2)(19,2,0,3,8)(19,3,8,2,0)(19,8,2,0,3)(20,4,4,7,5)(20,4,7,5,4)(20,5,4,4,7)(20,7,5,4,4)(21,4,5,5,5)(21,5,4,5,5)(21,5,5,4,5)(21,5,5,5,4)(22,4,5,8,8)(22,5,8,8,4)(22,8,4,5,8)(22,8,8,4,5)(23,4,6,6,7)(23,6,6,7,4)(23,6,7,4,6)(23,7,4,6,6)(24,4,6,7,8)(24,6,7,8,4)(24,7,8,4,6)(24,8,4,6,7)(25,4,7,6,5)(25,5,4,7,6)(25,6,5,4,7)(25,7,6,5,4)(26,4,7,7,5)(26,5,4,7,7)(26,7,5,4,7)(26,7,7,5,4)(27,4,7,7,7)(27,7,4,7,7)(27,7,7,4,7)(27,7,7,7,4)(28,4,8,5,6)(28,5,6,4,8)(28,6,4,8,5)(28,8,5,6,4)(29,4,8,5,7)(29,5,7,4,8)(29,7,4,8,5)(29,8,5,7,4)(30,4,8,7,6)(30,6,4,8,7)(30,7,6,4,8)(30,8,7,6,4)(31,4,8,7,8)(31,7,8,4,8)(31,8,4,8,7)(31,8,7,8,4)(32,5,6,5,7)(32,5,7,5,6)(32,6,5,7,5)(32,7,5,6,5)(33,5,6,6,8)(33,6,6,8,5)(33,6,8,5,6)(33,8,5,6,6)(34,5,6,7,8)(34,6,7,8,5)(34,7,8,5,6)(34,8,5,6,7)(35,5,8,6,8)(35,6,8,5,8)(35,8,5,8,6)(35,8,6,8,5) </supports>
</extension>
<args> id0[0] u0[0] l1[0] u1[0] l0[0] </args>
<args> id0[1] u0[1] l2[0] u1[1] l1[0] </args>
<args> id0[2] u0[2] l3[0] u1[2] l2[0] </args>
<args> id0[3] u0[3] l4[0] u1[3] l3[0] </args>
<args> id0[4] u0[4] l5[0] u1[4] l4[0] </args>
<args> id0[5] u0[5] r5[0] u1[5] l5[0] </args>
<args> id1[0] u1[0] l1[1] u2[0] l0[1] </args>
<args> id1[1] u1[1] l2[1] u2[1] l1[1] </args>
<args> id1[2] u1[2] l3[1] u2[2] l2[1] </args>
<args> id1[3] u1[3] l4[1] u2[3] l3[1] </args>
<args> id1[4] u1[4] l5[1] u2[4] l4[1] </args>
<args> id1[5] u1[5] r5[1] u2[5] l5[1] </args>
<args> id2[0] u2[0] l1[2] u3[0] l0[2] </args>
<args> id2[1] u2[1] l2[2] u3[1] l1[2] </args>
<args> id2[2] u2[2] l3[2] u3[2] l2[2] </args>
<args> id2[3] u2[3] l4[2] u3[3] l3[2] </args>
<args> id2[4] u2[4] l5[2] u3[4] l4[2] </args>
<args> id2[5] u2[5] r5[2] u3[5] l5[2] </args>
<args> id3[0] u3[0] l1[3] u4[0] l0[3] </args>
<args> id3[1] u3[1] l2[3] u4[1] l1[3] </args>
<args> id3[2] u3[2] l3[3] u4[2] l2[3] </args>
<args> id3[3] u3[3] l4[3] u4[3] l3[3] </args>
<args> id3[4] u3[4] l5[3] u4[4] l4[3] </args>
<args> id3[5] u3[5] r5[3] u4[5] l5[3] </args>
<args> id4[0] u4[0] l1[4] u5[0] l0[4] </args>
<args> id4[1] u4[1] l2[4] u5[1] l1[4] </args>
<args> id4[2] u4[2] l3[4] u5[2] l2[4] </args>
<args> id4[3] u4[3] l4[4] u5[3] l3[4] </args>
<args> id4[4] u4[4] l5[4] u5[4] l4[4] </args>
<args> id4[5] u4[5] r5[4] u5[5] l5[4] </args>
<args> id5[0] u5[0] l1[5] d5[0] l0[5] </args>
<args> id5[1] u5[1] l2[5] d5[1] l1[5] </args>
<args> id5[2] u5[2] l3[5] d5[2] l2[5] </args>
<args> id5[3] u5[3] l4[5] d5[3] l3[5] </args>
<args> id5[4] u5[4] l5[5] d5[4] l4[5] </args>
<args> id5[5] u5[5] r5[5] d5[5] l5[5] </args>
</group>
<group>
<intension> eq(%0,%1) </intension>
<args> l0[0] 0 </args>
<args> l0[1] 0 </args>
<args> l0[2] 0 </args>
<args> l0[3] 0 </args>
<args> l0[4] 0 </args>
<args> l0[5] 0 </args>
</group>
<group>
<intension> eq(%0,%1) </intension>
<args> r5[0] 0 </args>
<args> r5[1] 0 </args>
<args> r5[2] 0 </args>
<args> r5[3] 0 </args>
<args> r5[4] 0 </args>
<args> r5[5] 0 </args>
</group>
<group>
<intension> eq(%0,%1) </intension>
<args> u0[0] 0 </args>
<args> u0[1] 0 </args>
<args> u0[2] 0 </args>
<args> u0[3] 0 </args>
<args> u0[4] 0 </args>
<args> u0[5] 0 </args>
</group>
<group>
<intension> eq(%0,%1) </intension>
<args> d5[0] 0 </args>
<args> d5[1] 0 </args>
<args> d5[2] 0 </args>
<args> d5[3] 0 </args>
<args> d5[4] 0 </args>
<args> d5[5] 0 </args>
</group>
</constraints>
</instance>
